instances/shortest_path/discrete_knapsack_uncertainty/nohadani_3_11.kp
9030
100

[6.239511110130458 2.5572537119514 2.830889780651491 12.72551631354852 5.604800411999676 14.22554918119115]

[18 90 40 69 70 100]
